c description: Graph 3-Colorability of <cnfgen.graphs.Graph object at 0x110eb6890>
c generator: CNFgen (0.9.2)
c copyright: (C) 2012-2022 Massimo Lauria <massimo.lauria@uniroma1.it>
c url: https://massimolauria.net/cnfgen
c command line: cnfgen --varnames -o kcolor_3c_grid3x3.cnf kcolor 3 grid 3 3
c
c varname 1 x_{1,1}
c varname 2 x_{1,2}
c varname 3 x_{1,3}
c varname 4 x_{2,1}
c varname 5 x_{2,2}
c varname 6 x_{2,3}
c varname 7 x_{3,1}
c varname 8 x_{3,2}
c varname 9 x_{3,3}
c varname 10 x_{4,1}
c varname 11 x_{4,2}
c varname 12 x_{4,3}
c varname 13 x_{5,1}
c varname 14 x_{5,2}
c varname 15 x_{5,3}
c varname 16 x_{6,1}
c varname 17 x_{6,2}
c varname 18 x_{6,3}
c varname 19 x_{7,1}
c varname 20 x_{7,2}
c varname 21 x_{7,3}
c varname 22 x_{8,1}
c varname 23 x_{8,2}
c varname 24 x_{8,3}
c varname 25 x_{9,1}
c varname 26 x_{9,2}
c varname 27 x_{9,3}
c
p cnf 27 72
1 2 3 0
4 5 6 0
7 8 9 0
10 11 12 0
13 14 15 0
16 17 18 0
19 20 21 0
22 23 24 0
25 26 27 0
-1 -2 0
-1 -3 0
-2 -3 0
-4 -5 0
-4 -6 0
-5 -6 0
-7 -8 0
-7 -9 0
-8 -9 0
-10 -11 0
-10 -12 0
-11 -12 0
-13 -14 0
-13 -15 0
-14 -15 0
-16 -17 0
-16 -18 0
-17 -18 0
-19 -20 0
-19 -21 0
-20 -21 0
-22 -23 0
-22 -24 0
-23 -24 0
-25 -26 0
-25 -27 0
-26 -27 0
-1 -4 0
-2 -5 0
-3 -6 0
-1 -10 0
-2 -11 0
-3 -12 0
-4 -7 0
-5 -8 0
-6 -9 0
-4 -13 0
-5 -14 0
-6 -15 0
-7 -16 0
-8 -17 0
-9 -18 0
-10 -13 0
-11 -14 0
-12 -15 0
-10 -19 0
-11 -20 0
-12 -21 0
-13 -16 0
-14 -17 0
-15 -18 0
-13 -22 0
-14 -23 0
-15 -24 0
-16 -25 0
-17 -26 0
-18 -27 0
-19 -22 0
-20 -23 0
-21 -24 0
-22 -25 0
-23 -26 0
-24 -27 0
